nV = 	13;
nS = 	20;
H = 	1800;
T = 	42000;
stCap = 	950;
reclN = 	2;
stackbefore = 	10;
tMaxBetwRecl = 	300;
delayMax = 	13200;
sum_delay_max = 	330000;
discrPadPos = 	1;
discrStackStart = 	1440;
mulTonnage = 	1000;
mulPileLen = 	14;
hourDiscr = 	60;
 % ----------------------------------------- 
eta	 = [15519,16282,16436,16773,19472,22370,22670,24802,26936,32092,33224,33533,34454];
whichV	 = [  1,  1,  2,  3,  3,  4,  4,  5,  6,  7,  7,  8,  9,  9, 10, 11, 12, 12, 13, 13];
dS__	 = [  3,  3,  7,  3,  3,  7,  5,  5,  5,  3,  5,  7,  3,  5,  5,  3,  5,  3,  7,  5];
dR	 = [172,1131,1137,1152,1150,1240,440,1139,928,790,975,1058,1253,1175,553,501,735,245,406,516];

 % ----------------------------------------- 

